95 16 85 5 45 60 18 89 59 2 
91 26 79 54 55 4 75 
73 64 49 1 
39 41 56 22 17 
21 48 66 68 80 77 
7 69 20 30 98 
27 71 53 51 83 
31 65 29 74 93 
28 92 38 84 86 43 
47 46 8 6 13 
57 9 
11 10 34 
12 15 81 3 25 
42 23 67 35 
19 88 62 52 37 94 58 
33 99 61 
36 82 78 
14 44 96 87 97 100 
72 24 76 50 70 90 63 32 
40 

